54752
31, 27, 1, 33, 42, 11, 45, 2, 14, 9, 47, 30, 4, 18, 12, 34, 53, 54, 26, 55, 28, 6, 3, 43, 40, 7, 37, 5, 35, 24, 8, 44, 38, 50, 20, 51, 13, 41, 32, 19, 49, 48, 17, 23, 21, 29, 22, 10, 16, 39, 46, 36, 15, 52, 25
